%mem=15GB
%NProcShared=8
#p dsdpbep86/def2TZVPP iop(3/125=0079905785,3/78=0429604296,3/76=0310006900,3/74=1004)
# empiricaldispersion=gd3bj iop(3/174=0437700,3/175=-1,3/176=0,3/177=-1,3/178=5500000)
# SCF=(xqc)
# Opt=(MAXCYCLES=500)
# int=ultrafine

comment: 

0 2
C   -0.036393  -0.668614   1.084576
C   -0.036504   0.668772   1.084514
H    0.309486  -1.296670   1.924090
C   -0.633241   1.229343  -0.184059
H    0.309617   1.296971   1.923801
C   -1.323194  -0.000095  -0.813153
H   -1.312836   2.073565  -0.025199
H    0.205514   1.600765  -0.806713
C   -0.633112  -1.229398  -0.183916
H   -2.379293  -0.000134  -0.531703
H   -1.266175  -0.000156  -1.910590
H   -1.312625  -2.073667  -0.024945
H    0.205667  -1.600812  -0.806539
O    2.355598   0.000004  -0.726346
H    1.919987   0.000066   0.232071

