%mem=28GB
%NProcShared=6
#P wb97xd/def2svp
# SCF=(xqc)
# POpt=()
# int=ultrafine

comment: 

0 2
C  
C  1    R1 
H  1    R2  2    A2 
C  2    R3  1    A3  3    D3 
H  2    R4  1    A4  4    D4 
C  4    R5  2    A5  1    D5 
H  4    R6  2    A6  6    D6 
H  6    R7  4    A7  2    D7 
H  6    R8  4    A8  8    D8 
C  6    R9  4    A9  8    D9 
H  10   R10  6   A10  4   D10 
O  10   R11  6   A11  11   D11 
O  12   R12  10   A12  1   D12 
H  13   R13  12   A13  10   D13 
  Variables:
R1   =      1.4351
R2   =      1.0935
R3   =      1.3854
R4   =      1.0902
R5   =      1.4035
R6   =      1.0951
R7   =      1.0883
R8   =      1.0951
R10  =      1.097 
R11  =      1.3724
R12  =      1.4327
R13  =      0.967 
A2   =    123.406 
A3   =    110.5835
A4   =    125.0294
A5   =    119.0314
A6   =    121.3319
A7   =    123.5437
A8   =    118.2276
A9   =     89.3718
A10  =    126.103 
A11  =     75.0796
A12  =    106.0492
A13  =     99.6413
D3   =    224.9303
D4   =    177.3572
D5   =      7.8391
D6   =    183.4275
D7   =     38.4441
D8   =    156.6256
D9   =    298.0228
D10  =    158.3015
D11  =    104.4849
D12  =    128.1047
D13  =    135.7334
  Constants:
R9   =      2.225

