%mem=28GB
%NProcShared=6
#P wb97xd/def2svp
# SCF=(xqc)
# POpt=()
# int=ultrafine

comment: 

0 2
C  
C  1    R1 
H  1    R2  2    A2 
C  2    R3  1    A3  3    D3 
H  2    R4  1    A4  4    D4 
C  4    R5  2    A5  1    D5 
H  4    R6  2    A6  6    D6 
H  6    R7  4    A7  2    D7 
H  6    R8  4    A8  8    D8 
C  6    R9  4    A9  8    D9 
H  10   R10  6   A10  4   D10 
O  10   R11  6   A11  11   D11 
O  12   R12  10   A12  1   D12 
H  13   R13  12   A13  10   D13 
  Variables:
R1   =      1.4316
R2   =      1.0935
R3   =      1.3898
R4   =      1.0902
R5   =      1.3973
R6   =      1.095 
R7   =      1.0877
R8   =      1.0952
R10  =      1.0967
R11  =      1.3709
R12  =      1.4319
R13  =      0.967 
A2   =    123.4191
A3   =    110.7072
A4   =    124.939 
A5   =    119.087 
A6   =    121.3246
A7   =    123.9798
A8   =    118.2111
A9   =     89.3244
A10  =    127.0112
A11  =     74.2837
A12  =    106.2101
A13  =     99.6105
D3   =    223.2141
D4   =    177.0413
D5   =      8.6394
D6   =    183.3412
D7   =     35.7036
D8   =    157.8565
D9   =    300.4557
D10  =    158.3389
D11  =    103.7546
D12  =    130.9388
D13  =    136.8712
  Constants:
R9   =      2.23

