%mem=15GB
%NProcShared=8
#p dsdpbep86/def2TZVPP iop(3/125=0079905785,3/78=0429604296,3/76=0310006900,3/74=1004)
# empiricaldispersion=gd3bj iop(3/174=0437700,3/175=-1,3/176=0,3/177=-1,3/178=5500000)
# SCF=(xqc)
# Opt=(MAXCYCLES=500)
# int=ultrafine

comment: 

0 2
C   -0.451181   0.388496   0.875355
C   -0.133732  -0.912861   0.725738
H   -1.233320   0.770253   1.523834
C    0.984660  -1.098863  -0.267060
H   -0.668019  -1.735666   1.201633
C    1.560062   0.325537  -0.419482
H    1.744761  -1.826862   0.097881
H    0.623136  -1.510167  -1.218875
C    0.437402   1.277381   0.046043
H    2.437960   0.437842   0.245588
H    1.913490   0.531227  -1.439942
H    0.821567   2.140926   0.608661
H   -0.141345   1.679273  -0.803368
O   -2.235758   0.049808  -0.619469
H   -1.663059  -0.563371  -1.329335

