%mem=28GB
%NProcShared=6
#P wb97xd/def2svp
# SCF=(xqc)
# POpt=(CALCALL,TS,NOEIGEN,MAXCYCLES=60)
# int=ultrafine

comment: 

0 2
C  
C  1    R1 
H  1    R2  2    A2 
C  2    R3  1    A3  3    D3 
H  2    R4  1    A4  4    D4 
C  4    R5  2    A5  1    D5 
H  4    R6  2    A6  6    D6 
H  6    R7  4    A7  2    D7 
H  6    R8  4    A8  8    D8 
C  6    R9  4    A9  8    D9 
H  10   R10  6   A10  4   D10 
O  10   R11  6   A11  11   D11 
O  12   R12  10   A12  1   D12 
H  13   R13  12   A13  10   D13 
  Variables:
R1   =      1.4235
R2   =      1.0935
R3   =      1.3994
R4   =      1.0904
R5   =      1.3843
R6   =      1.0947
R7   =      1.0866
R8   =      1.0951
R10  =      1.0958
R11  =      1.3664
R12  =      1.4288
R13  =      0.9671
A2   =    123.1813
A3   =    111.5326
A4   =    124.363 
A5   =    119.1233
A6   =    121.2525
A7   =    124.3528
A8   =    118.429 
A9   =     88.876 
A10  =    130.1041
A11  =     72.1786
A12  =    106.6501
A13  =     99.6035
D3   =    218.9316
D4   =    176.4374
D5   =     10.9203
D6   =    182.864 
D7   =     29.307 
D8   =    161.0307
D9   =    305.911 
D10  =    158.4631
D11  =    101.892 
D12  =    138.5985
D13  =    138.8557
R9   =      2.3   

